20	5
0	10	9	4	5	1	6	8	2	3	7	10
1	2	17	19
2	4	19	16	18	17
3	4	17	19	14	15
4	3	18	16	19
5	5	15	13	16	19	17
6	4	18	17	20	16
7	4	15	16	17	18
8	6	19	16	17	18	15	20
9	4	15	17	13	19
10	1	11
11	2	15	14
12	3	20	16	18
13	2	18	20
14	2	13	12
15	1	21
16	1	21
17	1	21
18	1	21
19	1	21
20	1	21
21	0
0	0	0	0	0	0	0
1	4	5	5	3	4	5
2	2	1	3	1	1	1
3	1	5	2	1	3	4
4	10	1	2	5	1	5
5	4	2	3	5	1	1
6	8	1	3	2	2	4
7	10	2	4	3	3	3
8	1	2	4	1	5	2
9	2	2	1	5	3	2
10	8	5	3	2	1	4
11	4	3	4	4	5	1
12	4	1	5	1	5	4
13	9	1	5	5	2	3
14	8	5	5	3	2	1
15	5	3	3	5	3	1
16	7	2	4	1	2	5
17	2	1	1	3	2	5
18	6	3	2	4	1	5
19	7	1	4	2	2	5
20	4	2	4	3	5	3
21	0	0	0	0	0	0
12	12	10	10	13
